c 109_3_checker.cnf
c
c field = 109
c formula set type = 3_checker
c
p cnf 4 58
210 
212 
214 
-218 
211 
213 
215 
-219 
212 
214 
218 
-210 
213 
215 
219 
-211 
212 
214 
218 
-220 
213 
215 
219 
-221 
214 
218 
220 
-212 
215 
219 
221 
-213 
214 
218 
220 
-222 
215 
219 
221 
-223 
218 
220 
222 
-214 
219 
221 
223 
-215 
218 
220 
222 
-224 
219 
221 
223 
-225 
126 
156 
186 
-96 
127 
157 
187 
-97 
126 
156 
186 
-246 
127 
157 
187 
-247 
156 
186 
246 
-126 
157 
187 
247 
-127 
156 
186 
246 
-276 
157 
187 
247 
-277 
186 
246 
276 
-156 
187 
247 
277 
-157 
186 
246 
276 
-306 
187 
247 
277 
-307 
246 
276 
306 
-186 
247 
277 
307 
-187 
246 
276 
306 
-336 
247 
277 
307 
-337 
120 
152 
184 
-248 
121 
153 
185 
-249 
152 
184 
248 
-120 
153 
185 
249 
-121 
152 
184 
248 
-280 
153 
185 
249 
-281 
184 
248 
280 
-152 
185 
249 
281 
-153 
184 
248 
280 
-312 
185 
249 
281 
-313 
248 
280 
312 
-184 
249 
281 
313 
-185 
248 
280 
312 
-344 
249 
281 
313 
-345 
132 
160 
188 
-104 
133 
161 
189 
-105 
132 
160 
188 
-244 
133 
161 
189 
-245 
160 
188 
244 
-132 
161 
189 
245 
-133 
160 
188 
244 
-272 
161 
189 
245 
-273 
188 
244 
272 
-160 
189 
245 
273 
-161 
188 
244 
272 
-300 
189 
245 
273 
-301 
244 
272 
300 
-188 
245 
273 
301 
-189 
